30
1 0 1
2 0 2
2 1 3
3 0 2
3 1 1
3 2 4
4 0 2
4 1 1
4 2 3
4 3 1
5 0 4
5 1 1
5 2 4
5 3 4
5 4 3
6 0 1
6 1 2
6 2 1
6 3 4
6 4 1
6 5 3
7 0 2
7 1 4
7 2 2
7 3 4
7 4 1
7 5 2
7 6 4
8 0 1
8 1 3
8 2 3
8 3 3
8 4 3
8 5 3
8 6 1
8 7 2
9 0 3
9 1 3
9 2 4
9 3 4
9 4 2
9 5 1
9 6 2
9 7 2
9 8 4
10 0 3
10 1 3
10 2 4
10 3 3
10 4 3
10 5 4
10 6 3
10 7 1
10 8 1
10 9 2
11 0 1
11 1 2
11 2 2
11 3 2
11 4 3
11 5 4
11 6 2
11 7 1
11 8 2
11 9 3
11 10 1
12 0 3
12 1 3
12 2 1
12 3 1
12 4 2
12 5 3
12 6 4
12 7 4
12 8 4
12 9 3
12 10 2
12 11 3
13 0 2
13 1 1
13 2 1
13 3 1
13 4 1
13 5 4
13 6 2
13 7 2
13 8 4
13 9 3
13 10 3
13 11 3
13 12 1
14 0 1
14 1 1
14 2 4
14 3 2
14 4 2
14 5 1
14 6 2
14 7 3
14 8 1
14 9 1
14 10 4
14 11 2
14 12 3
14 13 2
15 0 4
15 1 2
15 2 4
15 3 2
15 4 3
15 5 1
15 6 1
15 7 4
15 8 1
15 9 4
15 10 2
15 11 3
15 12 1
15 13 1
15 14 4
16 0 4
16 1 1
16 2 4
16 3 1
16 4 3
16 5 3
16 6 4
16 7 4
16 8 1
16 9 2
16 10 4
16 11 4
16 12 3
16 13 1
16 14 1
16 15 1
17 0 2
17 1 1
17 2 2
17 3 2
17 4 2
17 5 4
17 6 3
17 7 3
17 8 3
17 9 2
17 10 1
17 11 2
17 12 2
17 13 1
17 14 3
17 15 3
17 16 3
18 0 4
18 1 1
18 2 4
18 3 4
18 4 4
18 5 3
18 6 4
18 7 4
18 8 2
18 9 2
18 10 1
18 11 1
18 12 1
18 13 2
18 14 1
18 15 4
18 16 2
18 17 2
19 0 2
19 1 4
19 2 1
19 3 1
19 4 1
19 5 2
19 6 1
19 7 4
19 8 3
19 9 4
19 10 2
19 11 1
19 12 2
19 13 3
19 14 3
19 15 2
19 16 4
19 17 4
19 18 4
20 0 3
20 1 2
20 2 4
20 3 1
20 4 4
20 5 1
20 6 2
20 7 4
20 8 4
20 9 1
20 10 1
20 11 2
20 12 4
20 13 1
20 14 2
20 15 2
20 16 1
20 17 2
20 18 3
20 19 1
21 0 1
21 1 3
21 2 2
21 3 3
21 4 3
21 5 1
21 6 3
21 7 2
21 8 2
21 9 4
21 10 4
21 11 3
21 12 3
21 13 3
21 14 3
21 15 4
21 16 3
21 17 4
21 18 1
21 19 2
21 20 2
22 0 2
22 1 4
22 2 2
22 3 2
22 4 1
22 5 4
22 6 1
22 7 4
22 8 4
22 9 2
22 10 4
22 11 2
22 12 1
22 13 2
22 14 1
22 15 3
22 16 3
22 17 3
22 18 3
22 19 4
22 20 1
22 21 3
23 0 1
23 1 3
23 2 3
23 3 4
23 4 2
23 5 4
23 6 3
23 7 1
23 8 3
23 9 4
23 10 4
23 11 3
23 12 1
23 13 4
23 14 4
23 15 4
23 16 4
23 17 3
23 18 1
23 19 3
23 20 4
23 21 4
23 22 2
24 0 1
24 1 2
24 2 2
24 3 4
24 4 4
24 5 2
24 6 1
24 7 4
24 8 1
24 9 4
24 10 3
24 11 3
24 12 2
24 13 3
24 14 4
24 15 2
24 16 3
24 17 3
24 18 3
24 19 4
24 20 1
24 21 3
24 22 4
24 23 3
25 0 2
25 1 1
25 2 3
25 3 1
25 4 4
25 5 4
25 6 1
25 7 2
25 8 1
25 9 1
25 10 3
25 11 3
25 12 4
25 13 1
25 14 4
25 15 2
25 16 4
25 17 1
25 18 3
25 19 4
25 20 1
25 21 4
25 22 4
25 23 4
25 24 4
26 0 1
26 1 2
26 2 2
26 3 2
26 4 4
26 5 3
26 6 1
26 7 1
26 8 3
26 9 1
26 10 3
26 11 4
26 12 3
26 13 4
26 14 1
26 15 1
26 16 1
26 17 4
26 18 3
26 19 2
26 20 1
26 21 3
26 22 3
26 23 4
26 24 3
26 25 2
27 0 1
27 1 1
27 2 1
27 3 2
27 4 3
27 5 4
27 6 2
27 7 2
27 8 3
27 9 3
27 10 1
27 11 4
27 12 3
27 13 3
27 14 4
27 15 3
27 16 4
27 17 4
27 18 2
27 19 2
27 20 3
27 21 3
27 22 1
27 23 3
27 24 2
27 25 1
27 26 3
28 0 4
28 1 3
28 2 3
28 3 1
28 4 1
28 5 4
28 6 3
28 7 4
28 8 1
28 9 1
28 10 3
28 11 2
28 12 3
28 13 3
28 14 3
28 15 4
28 16 3
28 17 3
28 18 2
28 19 3
28 20 3
28 21 4
28 22 1
28 23 4
28 24 3
28 25 2
28 26 4
28 27 4
29 0 2
29 1 1
29 2 1
29 3 2
29 4 2
29 5 1
29 6 3
29 7 2
29 8 1
29 9 1
29 10 1
29 11 4
29 12 3
29 13 4
29 14 2
29 15 3
29 16 3
29 17 4
29 18 1
29 19 3
29 20 1
29 21 2
29 22 2
29 23 2
29 24 3
29 25 3
29 26 2
29 27 2
29 28 2
